60
1 0 28
2 0 2
2 1 18
3 0 50
3 1 37
3 2 39
4 0 37
4 1 37
4 2 32
4 3 32
5 0 36
5 1 34
5 2 25
5 3 6
5 4 17
6 0 10
6 1 44
6 2 37
6 3 16
6 4 21
6 5 32
7 0 44
7 1 24
7 2 21
7 3 42
7 4 3
7 5 43
7 6 35
8 0 20
8 1 32
8 2 41
8 3 50
8 4 10
8 5 4
8 6 27
8 7 36
9 0 48
9 1 7
9 2 39
9 3 27
9 4 3
9 5 46
9 6 33
9 7 5
9 8 49
10 0 14
10 1 48
10 2 25
10 3 12
10 4 15
10 5 15
10 6 22
10 7 50
10 8 32
10 9 47
11 0 46
11 1 27
11 2 3
11 3 8
11 4 46
11 5 19
11 6 26
11 7 25
11 8 27
11 9 42
11 10 26
12 0 22
12 1 24
12 2 5
12 3 24
12 4 3
12 5 40
12 6 17
12 7 30
12 8 39
12 9 16
12 10 7
12 11 21
13 0 25
13 1 14
13 2 30
13 3 40
13 4 18
13 5 44
13 6 34
13 7 11
13 8 16
13 9 50
13 10 32
13 11 37
13 12 46
14 0 3
14 1 43
14 2 39
14 3 5
14 4 3
14 5 47
14 6 35
14 7 5
14 8 1
14 9 23
14 10 35
14 11 20
14 12 17
14 13 20
15 0 38
15 1 31
15 2 8
15 3 3
15 4 23
15 5 36
15 6 18
15 7 15
15 8 43
15 9 38
15 10 40
15 11 6
15 12 50
15 13 11
15 14 13
16 0 9
16 1 21
16 2 34
16 3 44
16 4 25
16 5 2
16 6 13
16 7 3
16 8 31
16 9 50
16 10 5
16 11 19
16 12 1
16 13 33
16 14 41
16 15 39
17 0 10
17 1 23
17 2 41
17 3 47
17 4 20
17 5 33
17 6 36
17 7 3
17 8 4
17 9 5
17 10 24
17 11 49
17 12 11
17 13 11
17 14 33
17 15 30
17 16 43
18 0 21
18 1 14
18 2 3
18 3 13
18 4 11
18 5 4
18 6 49
18 7 4
18 8 40
18 9 47
18 10 45
18 11 43
18 12 49
18 13 48
18 14 25
18 15 5
18 16 36
18 17 26
19 0 25
19 1 36
19 2 32
19 3 14
19 4 11
19 5 23
19 6 4
19 7 31
19 8 47
19 9 32
19 10 46
19 11 24
19 12 2
19 13 26
19 14 47
19 15 15
19 16 12
19 17 37
19 18 28
20 0 31
20 1 10
20 2 48
20 3 14
20 4 22
20 5 49
20 6 31
20 7 2
20 8 22
20 9 23
20 10 14
20 11 19
20 12 43
20 13 50
20 14 1
20 15 8
20 16 14
20 17 48
20 18 3
20 19 8
21 0 43
21 1 39
21 2 15
21 3 39
21 4 36
21 5 39
21 6 27
21 7 47
21 8 25
21 9 43
21 10 32
21 11 19
21 12 11
21 13 45
21 14 40
21 15 21
21 16 9
21 17 5
21 18 43
21 19 42
21 20 17
22 0 10
22 1 5
22 2 2
22 3 14
22 4 44
22 5 1
22 6 7
22 7 8
22 8 37
22 9 6
22 10 19
22 11 41
22 12 3
22 13 37
22 14 5
22 15 5
22 16 44
22 17 10
22 18 5
22 19 7
22 20 5
22 21 5
23 0 5
23 1 48
23 2 47
23 3 18
23 4 44
23 5 46
23 6 35
23 7 22
23 8 47
23 9 27
23 10 34
23 11 32
23 12 47
23 13 50
23 14 38
23 15 34
23 16 24
23 17 12
23 18 6
23 19 45
23 20 24
23 21 20
23 22 41
24 0 26
24 1 33
24 2 13
24 3 19
24 4 6
24 5 36
24 6 22
24 7 38
24 8 8
24 9 7
24 10 3
24 11 43
24 12 9
24 13 45
24 14 46
24 15 4
24 16 48
24 17 15
24 18 9
24 19 8
24 20 46
24 21 44
24 22 18
24 23 17
25 0 24
25 1 1
25 2 10
25 3 37
25 4 49
25 5 35
25 6 19
25 7 16
25 8 32
25 9 31
25 10 18
25 11 5
25 12 34
25 13 29
25 14 1
25 15 8
25 16 9
25 17 36
25 18 13
25 19 32
25 20 41
25 21 10
25 22 22
25 23 12
25 24 9
26 0 14
26 1 49
26 2 11
26 3 25
26 4 7
26 5 15
26 6 17
26 7 47
26 8 21
26 9 22
26 10 12
26 11 38
26 12 35
26 13 29
26 14 6
26 15 48
26 16 23
26 17 20
26 18 28
26 19 18
26 20 46
26 21 11
26 22 4
26 23 9
26 24 45
26 25 12
27 0 40
27 1 17
27 2 44
27 3 4
27 4 47
27 5 21
27 6 24
27 7 37
27 8 29
27 9 35
27 10 17
27 11 35
27 12 15
27 13 50
27 14 3
27 15 28
27 16 7
27 17 43
27 18 25
27 19 24
27 20 41
27 21 29
27 22 44
27 23 27
27 24 43
27 25 13
27 26 12
28 0 29
28 1 32
28 2 16
28 3 21
28 4 2
28 5 4
28 6 38
28 7 18
28 8 11
28 9 23
28 10 46
28 11 32
28 12 36
28 13 49
28 14 9
28 15 20
28 16 43
28 17 32
28 18 17
28 19 1
28 20 32
28 21 38
28 22 24
28 23 21
28 24 26
28 25 5
28 26 14
28 27 34
29 0 36
29 1 33
29 2 19
29 3 17
29 4 10
29 5 12
29 6 10
29 7 29
29 8 22
29 9 27
29 10 18
29 11 14
29 12 23
29 13 29
29 14 15
29 15 31
29 16 1
29 17 9
29 18 9
29 19 21
29 20 39
29 21 24
29 22 45
29 23 42
29 24 37
29 25 3
29 26 43
29 27 43
29 28 23
30 0 30
30 1 44
30 2 35
30 3 41
30 4 2
30 5 5
30 6 5
30 7 9
30 8 21
30 9 22
30 10 10
30 11 19
30 12 20
30 13 7
30 14 18
30 15 45
30 16 22
30 17 48
30 18 9
30 19 50
30 20 40
30 21 3
30 22 29
30 23 37
30 24 24
30 25 12
30 26 28
30 27 15
30 28 34
30 29 33
31 0 18
31 1 47
31 2 36
31 3 33
31 4 34
31 5 13
31 6 18
31 7 31
31 8 24
31 9 50
31 10 39
31 11 44
31 12 25
31 13 20
31 14 43
31 15 13
31 16 18
31 17 37
31 18 26
31 19 24
31 20 2
31 21 34
31 22 12
31 23 33
31 24 3
31 25 27
31 26 46
31 27 47
31 28 30
31 29 27
31 30 35
32 0 17
32 1 19
32 2 38
32 3 35
32 4 42
32 5 11
32 6 16
32 7 15
32 8 12
32 9 19
32 10 47
32 11 46
32 12 9
32 13 2
32 14 48
32 15 7
32 16 18
32 17 47
32 18 24
32 19 24
32 20 48
32 21 33
32 22 10
32 23 30
32 24 33
32 25 47
32 26 2
32 27 23
32 28 49
32 29 29
32 30 40
32 31 35
33 0 30
33 1 14
33 2 14
33 3 17
33 4 42
33 5 33
33 6 26
33 7 30
33 8 44
33 9 26
33 10 24
33 11 15
33 12 3
33 13 28
33 14 47
33 15 17
33 16 3
33 17 32
33 18 25
33 19 3
33 20 27
33 21 11
33 22 5
33 23 27
33 24 4
33 25 7
33 26 23
33 27 3
33 28 12
33 29 17
33 30 3
33 31 24
33 32 39
34 0 9
34 1 46
34 2 4
34 3 41
34 4 49
34 5 5
34 6 4
34 7 25
34 8 22
34 9 36
34 10 8
34 11 40
34 12 47
34 13 50
34 14 14
34 15 15
34 16 35
34 17 17
34 18 3
34 19 39
34 20 25
34 21 45
34 22 13
34 23 29
34 24 11
34 25 43
34 26 49
34 27 40
34 28 41
34 29 14
34 30 7
34 31 15
34 32 47
34 33 25
35 0 39
35 1 1
35 2 36
35 3 20
35 4 27
35 5 18
35 6 15
35 7 39
35 8 22
35 9 34
35 10 5
35 11 49
35 12 25
35 13 38
35 14 50
35 15 9
35 16 9
35 17 48
35 18 37
35 19 18
35 20 17
35 21 48
35 22 22
35 23 25
35 24 30
35 25 19
35 26 43
35 27 38
35 28 44
35 29 50
35 30 49
35 31 32
35 32 35
35 33 11
35 34 43
36 0 10
36 1 30
36 2 30
36 3 42
36 4 9
36 5 35
36 6 14
36 7 43
36 8 15
36 9 7
36 10 14
36 11 49
36 12 12
36 13 46
36 14 31
36 15 34
36 16 46
36 17 36
36 18 26
36 19 27
36 20 15
36 21 18
36 22 39
36 23 14
36 24 35
36 25 49
36 26 28
36 27 12
36 28 12
36 29 17
36 30 2
36 31 38
36 32 12
36 33 34
36 34 26
36 35 16
37 0 14
37 1 50
37 2 47
37 3 47
37 4 21
37 5 39
37 6 15
37 7 28
37 8 6
37 9 27
37 10 45
37 11 15
37 12 8
37 13 25
37 14 23
37 15 36
37 16 8
37 17 31
37 18 15
37 19 32
37 20 20
37 21 31
37 22 47
37 23 2
37 24 39
37 25 21
37 26 24
37 27 4
37 28 28
37 29 42
37 30 5
37 31 17
37 32 34
37 33 38
37 34 9
37 35 39
37 36 11
38 0 23
38 1 9
38 2 49
38 3 16
38 4 47
38 5 47
38 6 42
38 7 9
38 8 47
38 9 14
38 10 24
38 11 23
38 12 33
38 13 2
38 14 11
38 15 42
38 16 42
38 17 40
38 18 3
38 19 40
38 20 38
38 21 11
38 22 32
38 23 44
38 24 37
38 25 13
38 26 41
38 27 30
38 28 40
38 29 5
38 30 22
38 31 17
38 32 25
38 33 33
38 34 39
38 35 26
38 36 27
38 37 18
39 0 34
39 1 50
39 2 17
39 3 13
39 4 30
39 5 20
39 6 26
39 7 20
39 8 45
39 9 1
39 10 24
39 11 42
39 12 8
39 13 14
39 14 7
39 15 4
39 16 15
39 17 4
39 18 27
39 19 20
39 20 42
39 21 18
39 22 4
39 23 39
39 24 31
39 25 34
39 26 20
39 27 13
39 28 33
39 29 5
39 30 12
39 31 27
39 32 11
39 33 45
39 34 45
39 35 37
39 36 49
39 37 23
39 38 43
40 0 24
40 1 4
40 2 16
40 3 49
40 4 13
40 5 18
40 6 4
40 7 13
40 8 20
40 9 49
40 10 28
40 11 38
40 12 37
40 13 32
40 14 33
40 15 38
40 16 34
40 17 20
40 18 40
40 19 42
40 20 35
40 21 20
40 22 24
40 23 15
40 24 7
40 25 40
40 26 49
40 27 35
40 28 34
40 29 32
40 30 36
40 31 50
40 32 23
40 33 31
40 34 50
40 35 22
40 36 7
40 37 34
40 38 12
40 39 31
41 0 25
41 1 24
41 2 31
41 3 11
41 4 37
41 5 21
41 6 6
41 7 50
41 8 1
41 9 16
41 10 11
41 11 23
41 12 15
41 13 39
41 14 26
41 15 10
41 16 22
41 17 33
41 18 20
41 19 29
41 20 46
41 21 26
41 22 20
41 23 35
41 24 1
41 25 31
41 26 28
41 27 17
41 28 43
41 29 7
41 30 28
41 31 24
41 32 50
41 33 18
41 34 47
41 35 49
41 36 26
41 37 18
41 38 30
41 39 46
41 40 13
42 0 7
42 1 47
42 2 45
42 3 18
42 4 24
42 5 48
42 6 30
42 7 39
42 8 36
42 9 47
42 10 50
42 11 34
42 12 20
42 13 5
42 14 7
42 15 35
42 16 25
42 17 5
42 18 30
42 19 24
42 20 27
42 21 44
42 22 33
42 23 16
42 24 48
42 25 47
42 26 9
42 27 12
42 28 19
42 29 31
42 30 23
42 31 23
42 32 42
42 33 43
42 34 30
42 35 28
42 36 47
42 37 41
42 38 15
42 39 48
42 40 31
42 41 13
43 0 50
43 1 45
43 2 44
43 3 20
43 4 40
43 5 20
43 6 39
43 7 40
43 8 21
43 9 11
43 10 23
43 11 23
43 12 28
43 13 48
43 14 8
43 15 9
43 16 49
43 17 26
43 18 9
43 19 40
43 20 18
43 21 34
43 22 23
43 23 1
43 24 36
43 25 22
43 26 18
43 27 40
43 28 50
43 29 32
43 30 29
43 31 20
43 32 6
43 33 37
43 34 13
43 35 3
43 36 17
43 37 36
43 38 50
43 39 14
43 40 11
43 41 38
43 42 8
44 0 26
44 1 49
44 2 4
44 3 22
44 4 39
44 5 24
44 6 43
44 7 6
44 8 13
44 9 48
44 10 18
44 11 3
44 12 12
44 13 5
44 14 37
44 15 26
44 16 34
44 17 16
44 18 37
44 19 11
44 20 9
44 21 10
44 22 44
44 23 18
44 24 30
44 25 29
44 26 17
44 27 37
44 28 4
44 29 24
44 30 36
44 31 22
44 32 27
44 33 4
44 34 36
44 35 33
44 36 41
44 37 29
44 38 50
44 39 2
44 40 47
44 41 12
44 42 42
44 43 32
45 0 16
45 1 7
45 2 41
45 3 36
45 4 37
45 5 34
45 6 44
45 7 31
45 8 29
45 9 23
45 10 50
45 11 29
45 12 29
45 13 17
45 14 27
45 15 16
45 16 47
45 17 35
45 18 4
45 19 29
45 20 34
45 21 13
45 22 20
45 23 1
45 24 40
45 25 47
45 26 18
45 27 14
45 28 9
45 29 30
45 30 32
45 31 46
45 32 29
45 33 35
45 34 2
45 35 34
45 36 7
45 37 10
45 38 35
45 39 5
45 40 7
45 41 12
45 42 8
45 43 33
45 44 6
46 0 17
46 1 22
46 2 47
46 3 15
46 4 16
46 5 24
46 6 12
46 7 10
46 8 4
46 9 16
46 10 48
46 11 46
46 12 43
46 13 25
46 14 25
46 15 47
46 16 42
46 17 45
46 18 22
46 19 10
46 20 50
46 21 13
46 22 24
46 23 19
46 24 30
46 25 19
46 26 11
46 27 20
46 28 50
46 29 9
46 30 34
46 31 9
46 32 8
46 33 29
46 34 19
46 35 34
46 36 29
46 37 38
46 38 18
46 39 47
46 40 7
46 41 47
46 42 5
46 43 31
46 44 9
46 45 21
47 0 32
47 1 16
47 2 3
47 3 42
47 4 15
47 5 32
47 6 26
47 7 7
47 8 21
47 9 31
47 10 6
47 11 49
47 12 30
47 13 13
47 14 9
47 15 5
47 16 45
47 17 4
47 18 7
47 19 11
47 20 3
47 21 6
47 22 23
47 23 14
47 24 4
47 25 27
47 26 2
47 27 15
47 28 4
47 29 45
47 30 9
47 31 2
47 32 41
47 33 47
47 34 25
47 35 6
47 36 7
47 37 4
47 38 48
47 39 29
47 40 47
47 41 10
47 42 20
47 43 44
47 44 45
47 45 22
47 46 8
48 0 29
48 1 37
48 2 43
48 3 12
48 4 37
48 5 43
48 6 26
48 7 28
48 8 18
48 9 31
48 10 2
48 11 11
48 12 20
48 13 25
48 14 39
48 15 27
48 16 27
48 17 10
48 18 17
48 19 28
48 20 11
48 21 3
48 22 38
48 23 3
48 24 9
48 25 27
48 26 47
48 27 22
48 28 5
48 29 32
48 30 42
48 31 6
48 32 11
48 33 31
48 34 32
48 35 48
48 36 5
48 37 1
48 38 4
48 39 1
48 40 33
48 41 10
48 42 10
48 43 46
48 44 36
48 45 43
48 46 34
48 47 9
49 0 43
49 1 48
49 2 19
49 3 32
49 4 46
49 5 25
49 6 23
49 7 29
49 8 26
49 9 32
49 10 30
49 11 22
49 12 43
49 13 11
49 14 49
49 15 48
49 16 5
49 17 45
49 18 7
49 19 14
49 20 11
49 21 7
49 22 36
49 23 23
49 24 33
49 25 50
49 26 43
49 27 3
49 28 25
49 29 19
49 30 40
49 31 10
49 32 1
49 33 6
49 34 33
49 35 50
49 36 32
49 37 6
49 38 42
49 39 10
49 40 37
49 41 29
49 42 13
49 43 37
49 44 41
49 45 38
49 46 20
49 47 9
49 48 5
50 0 40
50 1 48
50 2 27
50 3 20
50 4 49
50 5 24
50 6 40
50 7 46
50 8 48
50 9 24
50 10 7
50 11 10
50 12 1
50 13 29
50 14 39
50 15 31
50 16 25
50 17 46
50 18 38
50 19 45
50 20 38
50 21 45
50 22 19
50 23 40
50 24 22
50 25 39
50 26 37
50 27 30
50 28 47
50 29 2
50 30 44
50 31 14
50 32 12
50 33 2
50 34 17
50 35 36
50 36 20
50 37 46
50 38 14
50 39 33
50 40 38
50 41 20
50 42 9
50 43 48
50 44 14
50 45 5
50 46 3
50 47 5
50 48 34
50 49 23
51 0 38
51 1 34
51 2 16
51 3 17
51 4 14
51 5 47
51 6 48
51 7 8
51 8 40
51 9 8
51 10 4
51 11 33
51 12 26
51 13 21
51 14 41
51 15 7
51 16 24
51 17 20
51 18 15
51 19 24
51 20 12
51 21 1
51 22 35
51 23 18
51 24 28
51 25 46
51 26 9
51 27 21
51 28 6
51 29 15
51 30 38
51 31 25
51 32 23
51 33 42
51 34 32
51 35 1
51 36 35
51 37 6
51 38 25
51 39 46
51 40 5
51 41 9
51 42 44
51 43 13
51 44 47
51 45 11
51 46 36
51 47 5
51 48 41
51 49 15
51 50 25
52 0 1
52 1 6
52 2 29
52 3 31
52 4 40
52 5 2
52 6 31
52 7 4
52 8 3
52 9 40
52 10 40
52 11 21
52 12 34
52 13 43
52 14 27
52 15 25
52 16 15
52 17 49
52 18 17
52 19 44
52 20 28
52 21 31
52 22 24
52 23 20
52 24 25
52 25 13
52 26 48
52 27 27
52 28 19
52 29 12
52 30 13
52 31 32
52 32 2
52 33 19
52 34 34
52 35 42
52 36 18
52 37 26
52 38 26
52 39 37
52 40 19
52 41 33
52 42 14
52 43 35
52 44 16
52 45 21
52 46 33
52 47 19
52 48 26
52 49 42
52 50 8
52 51 15
53 0 49
53 1 49
53 2 22
53 3 49
53 4 2
53 5 35
53 6 32
53 7 15
53 8 17
53 9 23
53 10 24
53 11 4
53 12 13
53 13 14
53 14 44
53 15 48
53 16 14
53 17 4
53 18 15
53 19 2
53 20 50
53 21 44
53 22 1
53 23 50
53 24 50
53 25 45
53 26 6
53 27 26
53 28 17
53 29 19
53 30 49
53 31 15
53 32 41
53 33 20
53 34 20
53 35 5
53 36 1
53 37 29
53 38 30
53 39 11
53 40 40
53 41 3
53 42 1
53 43 43
53 44 47
53 45 48
53 46 17
53 47 43
53 48 36
53 49 40
53 50 14
53 51 2
53 52 9
54 0 7
54 1 11
54 2 47
54 3 40
54 4 19
54 5 20
54 6 35
54 7 9
54 8 46
54 9 28
54 10 30
54 11 44
54 12 28
54 13 2
54 14 16
54 15 21
54 16 10
54 17 41
54 18 39
54 19 15
54 20 15
54 21 7
54 22 25
54 23 12
54 24 9
54 25 11
54 26 30
54 27 13
54 28 35
54 29 43
54 30 40
54 31 11
54 32 26
54 33 24
54 34 14
54 35 43
54 36 3
54 37 45
54 38 10
54 39 31
54 40 48
54 41 18
54 42 2
54 43 30
54 44 28
54 45 41
54 46 8
54 47 25
54 48 36
54 49 18
54 50 26
54 51 30
54 52 3
54 53 34
55 0 3
55 1 38
55 2 17
55 3 7
55 4 15
55 5 12
55 6 32
55 7 46
55 8 14
55 9 45
55 10 25
55 11 8
55 12 42
55 13 33
55 14 10
55 15 17
55 16 38
55 17 41
55 18 1
55 19 47
55 20 24
55 21 18
55 22 37
55 23 19
55 24 2
55 25 8
55 26 3
55 27 35
55 28 48
55 29 1
55 30 36
55 31 29
55 32 44
55 33 40
55 34 18
55 35 25
55 36 1
55 37 12
55 38 12
55 39 10
55 40 15
55 41 44
55 42 36
55 43 39
55 44 16
55 45 24
55 46 4
55 47 7
55 48 19
55 49 44
55 50 31
55 51 22
55 52 34
55 53 50
55 54 35
56 0 47
56 1 9
56 2 21
56 3 43
56 4 14
56 5 28
56 6 46
56 7 8
56 8 8
56 9 30
56 10 46
56 11 27
56 12 49
56 13 36
56 14 20
56 15 37
56 16 37
56 17 23
56 18 5
56 19 1
56 20 24
56 21 18
56 22 41
56 23 40
56 24 44
56 25 15
56 26 16
56 27 5
56 28 45
56 29 14
56 30 5
56 31 5
56 32 34
56 33 23
56 34 36
56 35 17
56 36 38
56 37 27
56 38 2
56 39 24
56 40 28
56 41 2
56 42 8
56 43 27
56 44 42
56 45 7
56 46 44
56 47 50
56 48 13
56 49 47
56 50 8
56 51 12
56 52 18
56 53 15
56 54 39
56 55 15
57 0 33
57 1 43
57 2 22
57 3 31
57 4 36
57 5 31
57 6 24
57 7 33
57 8 11
57 9 20
57 10 21
57 11 13
57 12 27
57 13 43
57 14 47
57 15 6
57 16 11
57 17 4
57 18 33
57 19 11
57 20 23
57 21 37
57 22 14
57 23 14
57 24 30
57 25 26
57 26 39
57 27 11
57 28 47
57 29 10
57 30 25
57 31 9
57 32 28
57 33 23
57 34 34
57 35 50
57 36 1
57 37 35
57 38 29
57 39 49
57 40 48
57 41 49
57 42 10
57 43 35
57 44 6
57 45 6
57 46 20
57 47 31
57 48 9
57 49 29
57 50 42
57 51 29
57 52 29
57 53 27
57 54 48
57 55 12
57 56 2
58 0 20
58 1 7
58 2 32
58 3 25
58 4 31
58 5 25
58 6 32
58 7 49
58 8 21
58 9 8
58 10 33
58 11 5
58 12 3
58 13 44
58 14 24
58 15 23
58 16 32
58 17 20
58 18 8
58 19 23
58 20 20
58 21 42
58 22 29
58 23 30
58 24 15
58 25 50
58 26 33
58 27 45
58 28 3
58 29 29
58 30 42
58 31 42
58 32 10
58 33 18
58 34 46
58 35 30
58 36 34
58 37 8
58 38 21
58 39 6
58 40 46
58 41 46
58 42 24
58 43 40
58 44 35
58 45 13
58 46 18
58 47 49
58 48 5
58 49 24
58 50 14
58 51 23
58 52 14
58 53 35
58 54 27
58 55 1
58 56 40
58 57 32
59 0 24
59 1 15
59 2 13
59 3 20
59 4 10
59 5 26
59 6 39
59 7 43
59 8 9
59 9 17
59 10 43
59 11 5
59 12 31
59 13 15
59 14 43
59 15 24
59 16 39
59 17 49
59 18 50
59 19 22
59 20 20
59 21 35
59 22 18
59 23 19
59 24 44
59 25 18
59 26 29
59 27 41
59 28 46
59 29 46
59 30 17
59 31 42
59 32 42
59 33 18
59 34 20
59 35 34
59 36 27
59 37 18
59 38 9
59 39 38
59 40 7
59 41 45
59 42 44
59 43 27
59 44 35
59 45 23
59 46 42
59 47 6
59 48 8
59 49 40
59 50 29
59 51 19
59 52 48
59 53 15
59 54 25
59 55 2
59 56 37
59 57 5
59 58 23
